
Gurobi 11.0.3 (linux64) logging started Mon 18 Nov 2024 10:03:14 PM CST

Set parameter LogFile to value "/home/dlcole3/graph_abstraction/hierarchical_graphs/git_storage/CS1/HP_low_reserves/gurobi_logs/serial/logfile_ST15_3.log"

Gurobi 11.0.3 (linux64) logging started Mon 18 Nov 2024 10:10:16 PM CST

Set parameter LogFile to value "/home/dlcole3/graph_abstraction/hierarchical_graphs/git_storage/CS1/HP_low_reserves/gurobi_logs/serial/logfile_ST15_3.log"
Gurobi Optimizer version 11.0.3 build v11.0.3rc0 (linux64 - "Ubuntu 18.04.3 LTS")

CPU model: Intel(R) Xeon(R) CPU E5-2698 v4 @ 2.20GHz, instruction set [SSE2|AVX|AVX2]
Thread count: 40 physical cores, 80 logical processors, using up to 20 threads

Optimize a model with 29168 rows, 50688 columns and 136175 nonzeros
Model fingerprint: 0xd4835af0
Variable types: 46944 continuous, 3744 integer (3744 binary)
Coefficient statistics:
  Matrix range     [6e-01, 2e+04]
  Objective range  [2e+00, 2e+04]
  Bounds range     [5e-02, 2e+05]
  RHS range        [5e-02, 7e+03]
Presolve removed 14179 rows and 38562 columns
Presolve time: 0.34s
Presolved: 14989 rows, 12126 columns, 64006 nonzeros
Variable types: 9111 continuous, 3015 integer (3015 binary)
Found heuristic solution: objective 501133.27920
Found heuristic solution: objective 410558.88209

Root relaxation: objective 5.638097e+04, 8479 iterations, 0.47 seconds (0.37 work units)

    Nodes    |    Current Node    |     Objective Bounds      |     Work
 Expl Unexpl |  Obj  Depth IntInf | Incumbent    BestBd   Gap | It/Node Time

     0     0 56380.9702    0   23 410558.882 56380.9702  86.3%     -    1s
H    0     0                    104459.50510 56380.9702  46.0%     -    1s
     0     0 56380.9702    0   23 104459.505 56380.9702  46.0%     -    2s
     0     2 56380.9702    0   23 104459.505 56380.9702  46.0%     -    2s
H   31    52                    59191.002403 56381.1758  4.75%  48.2    2s
H   33    52                    59052.755451 56381.1758  4.52%  47.2    2s
H   43    52                    58834.819537 56414.7670  4.11%  51.0    2s
H   48    52                    58759.470810 56414.7670  3.99%  48.9    2s
H  131   122                    57281.628480 56449.6570  1.45%  39.7    3s
H  164   113                    57281.609706 56449.6570  1.45%  35.1    3s
H  221   148                    57279.660388 56449.6570  1.45%  28.8    3s
H  222   148                    57276.764749 56449.6570  1.44%  28.8    3s
*  262   160              18    57276.735170 56449.6570  1.44%  27.0    3s
H 1203   381                    57276.735164 56609.7195  1.16%  14.9    4s
  1554   482 57267.8310   14   19 57276.7352 56609.7214  1.16%  13.8    5s
H 2234   570                    57276.735132 57136.5496  0.24%  12.6    7s

Explored 2257 nodes (36915 simplex iterations) in 7.52 seconds (5.63 work units)
Thread count was 20 (of 80 available processors)

Solution count 10: 57276.7 57276.7 57276.7 ... 104460

Optimal solution found (tolerance 3.00e-03)
Best objective 5.727673513601e+04, best bound 5.713654955594e+04, gap 0.2448%

User-callback calls 6808, time in user-callback 0.00 sec
